n_machines = 5;
n_resources = 6;
n_jobs = 60;
horizon = 2939;
LB = 611;
n_jobs_per_resource = [10, 10, 10, 10, 10, 10];
duration = [63, 66, 80, 83, 45, 84, 27, 34, 67, 28, 85, 92, 58, 7, 98, 30, 31, 7, 31, 3, 49, 72, 69, 40, 81, 42, 65, 39, 72, 82, 97, 29, 39, 79, 28, 1, 53, 58, 2, 13, 30, 55, 35, 43, 67, 3, 83, 93, 78, 18, 2, 98, 7, 14, 5, 53, 22, 39, 77, 88]